Maximize
  0.0201372247198774 Z_582_3_0 + 0.0315577168747325 Z_582_3_1
   + 0.0204540268587823 Z_582_3_2 + 0.2085125906520931 Z_582_3_3
   + 0.0131141446207999 Z_582_0_0 + 0.00834595836222659 Z_582_0_1
   + 0.00752331414310086 Z_582_0_2 + 0.1772392593026161 Z_582_0_3
   + 0.0279384566005027 Z_582_6_0 + 0.1081484321912176 Z_582_6_1
   + 0.0260766955201487 Z_582_6_2 + 0.0373341376894186 Z_582_6_3
   + 0.0100714519527054 Z_582_5_0 + 0.0275038463132136 Z_582_5_1
   + 0.347310050298288 Z_582_5_2 + 0.0219298674151052 Z_582_5_3
   + 0.0201372247198774 Z_582_4_0 + 0.0315577168747325 Z_582_4_1
   + 0.0204540268587823 Z_582_4_2 + 0.2085125906520931 Z_582_4_3
   + 0.0201372247198774 Z_582_2_0 + 0.0315577168747325 Z_582_2_1
   + 0.0204540268587823 Z_582_2_2 + 0.2085125906520931 Z_582_2_3
   + 0.0131141446207999 Z_582_1_0 + 0.00834595836222659 Z_582_1_1
   + 0.00752331414310086 Z_582_1_2 + 0.1772392593026161 Z_582_1_3
Subject To
 constraint1_5823: Z_582_3_0 + Z_582_3_1 + Z_582_3_2 + Z_582_3_3 <= 1
 constraint1_5820: Z_582_0_0 + Z_582_0_1 + Z_582_0_2 + Z_582_0_3 <= 1
 constraint1_5826: Z_582_6_0 + Z_582_6_1 + Z_582_6_2 + Z_582_6_3 <= 1
 constraint1_5825: Z_582_5_0 + Z_582_5_1 + Z_582_5_2 + Z_582_5_3 <= 1
 constraint1_5824: Z_582_4_0 + Z_582_4_1 + Z_582_4_2 + Z_582_4_3 <= 1
 constraint1_5822: Z_582_2_0 + Z_582_2_1 + Z_582_2_2 + Z_582_2_3 <= 1
 constraint1_5821: Z_582_1_0 + Z_582_1_1 + Z_582_1_2 + Z_582_1_3 <= 1
 constraint2_5820: Z_582_3_0 + Z_582_0_0 + Z_582_6_0 + Z_582_5_0
   + Z_582_4_0 + Z_582_2_0 + Z_582_1_0 <= 1
 constraint2_5821: Z_582_3_1 + Z_582_0_1 + Z_582_6_1 + Z_582_5_1
   + Z_582_4_1 + Z_582_2_1 + Z_582_1_1 <= 1
 constraint2_5822: Z_582_3_2 + Z_582_0_2 + Z_582_6_2 + Z_582_5_2
   + Z_582_4_2 + Z_582_2_2 + Z_582_1_2 <= 1
 constraint2_5823: Z_582_3_3 + Z_582_0_3 + Z_582_6_3 + Z_582_5_3
   + Z_582_4_3 + Z_582_2_3 + Z_582_1_3 <= 1
Bounds
Binaries
 Z_582_3_0 Z_582_3_1 Z_582_3_2 Z_582_3_3 Z_582_0_0 Z_582_0_1 Z_582_0_2
 Z_582_0_3 Z_582_6_0 Z_582_6_1 Z_582_6_2 Z_582_6_3 Z_582_5_0 Z_582_5_1
 Z_582_5_2 Z_582_5_3 Z_582_4_0 Z_582_4_1 Z_582_4_2 Z_582_4_3 Z_582_2_0
 Z_582_2_1 Z_582_2_2 Z_582_2_3 Z_582_1_0 Z_582_1_1 Z_582_1_2 Z_582_1_3
End
